NAME : random_17
COMMENT : 31 random nodes
TYPE : TSP
DIMENSION : 31
EDGE_WEIGHT_TYPE : EUC_2D
NODE_COORD_SECTION
1 -2614 1
2 -992 -749
3 1008 919
4 -1315 2105
5 -2416 -149
6 1369 -2542
7 -938 2974
8 2628 3857
9 -1993 857
10 3761 1980
11 -306 658
12 1217 -1740
13 359 3285
14 1295 3610
15 -1767 -2728
16 2413 571
17 -191 -667
18 4546 4255
19 2019 1971
20 1379 3949
21 98 350
22 124 1079
23 -696 -2306
24 3693 3307
25 537 4346
26 -52 -1385
27 830 3266
28 3622 2445
29 2340 -324
30 1017 -2588
31 -2166 -1302
EOF